; DUP3 DUP1 MLOAD SWAP1 => DUP3 MLOAD DUP4
(set-option :produce-proofs true)
; 
(set-info :status unknown)
(declare-fun storage_t ((_ BitVec 256) (_ BitVec 256) (_ BitVec 256) (_ BitVec 256) Int (_ BitVec 256)) (_ BitVec 256))
(declare-fun storage_s ((_ BitVec 256) (_ BitVec 256) (_ BitVec 256) (_ BitVec 256) Int (_ BitVec 256)) (_ BitVec 256))
(declare-fun exc_halt_t (Int) Bool)
(declare-fun exc_halt_s (Int) Bool)
(declare-fun sc_t (Int) (_ BitVec 6))
(declare-fun stack_t ((_ BitVec 256) (_ BitVec 256) (_ BitVec 256) (_ BitVec 256) Int (_ BitVec 6)) (_ BitVec 256))
(declare-fun stack_s ((_ BitVec 256) (_ BitVec 256) (_ BitVec 256) (_ BitVec 256) Int (_ BitVec 6)) (_ BitVec 256))
(declare-fun sc_s (Int) (_ BitVec 6))
(declare-fun used_gas_t ((_ BitVec 256) (_ BitVec 256) (_ BitVec 256) (_ BitVec 256) Int) Int)
(declare-fun used_gas_s ((_ BitVec 256) (_ BitVec 256) (_ BitVec 256) (_ BitVec 256) Int) Int)
(declare-fun f_MLOAD ((_ BitVec 256) (_ BitVec 256) (_ BitVec 256) (_ BitVec 256) (_ BitVec 256)) (_ BitVec 256))
(assert
 (exists ((x_0 (_ BitVec 256)) (x_1 (_ BitVec 256)) (x_2 (_ BitVec 256)) (x_MLOAD_0 (_ BitVec 256)) )(let (($x6776 (forall ((w (_ BitVec 256)) )(let ((?x2081 (storage_t x_0 x_1 x_2 x_MLOAD_0 3 w)))
 (let ((?x6033 (storage_s x_0 x_1 x_2 x_MLOAD_0 4 w)))
 (= ?x6033 ?x2081))))
 ))
 (let (($x9131 (exc_halt_t 3)))
 (let (($x9175 (exc_halt_s 4)))
 (let (($x5676 (= $x9175 $x9131)))
 (let (($x8327 (forall ((n (_ BitVec 6)) )(let ((?x10013 (sc_t 3)))
 (let (($x8101 (bvsle ?x10013 n)))
 (let ((?x7154 (stack_t x_0 x_1 x_2 x_MLOAD_0 3 n)))
 (let ((?x70 (stack_s x_0 x_1 x_2 x_MLOAD_0 4 n)))
 (let (($x566 (= ?x70 ?x7154)))
 (or $x566 $x8101)))))))
 ))
 (let ((?x10013 (sc_t 3)))
 (let ((?x9433 (sc_s 4)))
 (let (($x4140 (= ?x9433 ?x10013)))
 (let ((?x10043 (used_gas_t x_0 x_1 x_2 x_MLOAD_0 0)))
 (let ((?x8318 (used_gas_s x_0 x_1 x_2 x_MLOAD_0 0)))
 (let (($x2663 (= ?x8318 ?x10043)))
 (let (($x10348 (forall ((w (_ BitVec 256)) )(let ((?x10162 (storage_t x_0 x_1 x_2 x_MLOAD_0 0 w)))
 (let ((?x2417 (storage_s x_0 x_1 x_2 x_MLOAD_0 0 w)))
 (= ?x2417 ?x10162))))
 ))
 (let (($x56 (exc_halt_t 0)))
 (let (($x57 (exc_halt_s 0)))
 (let (($x58 (= $x57 $x56)))
 (let (($x6066 (forall ((n (_ BitVec 6)) )(let ((?x63 (sc_t 0)))
 (let (($x6494 (bvsle ?x63 n)))
 (let ((?x370 (stack_t x_0 x_1 x_2 x_MLOAD_0 0 n)))
 (let ((?x9466 (stack_s x_0 x_1 x_2 x_MLOAD_0 0 n)))
 (let (($x2300 (= ?x9466 ?x370)))
 (or $x2300 $x6494)))))))
 ))
 (let ((?x63 (sc_t 0)))
 (let ((?x72 (sc_s 0)))
 (let (($x73 (= ?x72 ?x63)))
 (let (($x11925 (not (bvsle (_ bv0 6) (bvadd (_ bv60 6) (sc_t 2))))))
 (let (($x7801 (exc_halt_t 2)))
 (let (($x366 (or $x7801 (not (= ((_ extract 6 6) (bvadd (_ bv1 7) (concat (_ bv0 1) (sc_t 2)))) (_ bv0 1))) $x11925)))
 (let (($x4208 (forall ((w (_ BitVec 256)) )(let ((?x3709 (storage_t x_0 x_1 x_2 x_MLOAD_0 2 w)))
 (let ((?x2081 (storage_t x_0 x_1 x_2 x_MLOAD_0 3 w)))
 (= ?x2081 ?x3709))))
 ))
 (let (($x9126 (forall ((n (_ BitVec 6)) )(let ((?x10983 (stack_t x_0 x_1 x_2 x_MLOAD_0 2 n)))
 (let ((?x7154 (stack_t x_0 x_1 x_2 x_MLOAD_0 3 n)))
 (let ((?x8438 (sc_t 2)))
 (let ((?x9174 (bvadd (_ bv60 6) ?x8438)))
 (let (($x6899 (bvsle ?x9174 n)))
 (or $x6899 (= ?x7154 ?x10983))))))))
 ))
 (let (($x4497 (= (used_gas_t x_0 x_1 x_2 x_MLOAD_0 3) (+ 3 (used_gas_t x_0 x_1 x_2 x_MLOAD_0 2)))))
 (let ((?x8438 (sc_t 2)))
 (let ((?x3979 (bvadd (_ bv63 6) ?x8438)))
 (let ((?x5261 (stack_t x_0 x_1 x_2 x_MLOAD_0 2 ?x3979)))
 (let (($x8120 (= (stack_t x_0 x_1 x_2 x_MLOAD_0 3 (bvadd (_ bv62 6) ?x8438)) (stack_t x_0 x_1 x_2 x_MLOAD_0 2 (bvadd (_ bv62 6) ?x8438)))))
 (let (($x5928 (= (stack_t x_0 x_1 x_2 x_MLOAD_0 3 (bvadd (_ bv61 6) ?x8438)) (stack_t x_0 x_1 x_2 x_MLOAD_0 2 (bvadd (_ bv61 6) ?x8438)))))
 (let ((?x9174 (bvadd (_ bv60 6) ?x8438)))
 (let ((?x4870 (stack_t x_0 x_1 x_2 x_MLOAD_0 2 ?x9174)))
 (let (($x1152 (= $x7801 (or (exc_halt_t 1) (not (bvsle (_ bv0 6) (bvadd (_ bv63 6) (sc_t 1))))))))
 (let (($x728 (forall ((w (_ BitVec 256)) )(let ((?x2391 (storage_t x_0 x_1 x_2 x_MLOAD_0 1 w)))
 (let ((?x3709 (storage_t x_0 x_1 x_2 x_MLOAD_0 2 w)))
 (= ?x3709 ?x2391))))
 ))
 (let (($x1361 (forall ((n (_ BitVec 6)) )(let ((?x9983 (stack_t x_0 x_1 x_2 x_MLOAD_0 1 n)))
 (let ((?x10983 (stack_t x_0 x_1 x_2 x_MLOAD_0 2 n)))
 (or (bvsle (bvadd (_ bv63 6) (sc_t 1)) n) (= ?x10983 ?x9983)))))
 ))
 (let ((?x2459 (sc_t 1)))
 (let (($x2053 (= ?x8438 ?x2459)))
 (let ((?x4677 (used_gas_t x_0 x_1 x_2 x_MLOAD_0 2)))
 (let ((?x11699 (bvadd (_ bv63 6) ?x2459)))
 (let ((?x2999 (stack_t x_0 x_1 x_2 x_MLOAD_0 1 ?x11699)))
 (let (($x5956 (not (= ((_ extract 6 6) (bvadd (_ bv1 7) (concat (_ bv0 1) ?x63))) (_ bv0 1)))))
 (let (($x3751 (exc_halt_t 1)))
 (let (($x9037 (forall ((w (_ BitVec 256)) )(let ((?x10162 (storage_t x_0 x_1 x_2 x_MLOAD_0 0 w)))
 (let ((?x2391 (storage_t x_0 x_1 x_2 x_MLOAD_0 1 w)))
 (= ?x2391 ?x10162))))
 ))
 (let (($x7103 (forall ((n (_ BitVec 6)) )(let ((?x370 (stack_t x_0 x_1 x_2 x_MLOAD_0 0 n)))
 (let ((?x9983 (stack_t x_0 x_1 x_2 x_MLOAD_0 1 n)))
 (or (bvsle (bvadd (_ bv61 6) (sc_t 0)) n) (= ?x9983 ?x370)))))
 ))
 (let (($x3412 (= ?x2459 (bvadd (_ bv1 6) ?x63))))
 (let (($x8561 (= (stack_t x_0 x_1 x_2 x_MLOAD_0 1 (bvadd (_ bv63 6) ?x63)) (stack_t x_0 x_1 x_2 x_MLOAD_0 0 (bvadd (_ bv63 6) ?x63)))))
 (let (($x2449 (= (stack_t x_0 x_1 x_2 x_MLOAD_0 1 (bvadd (_ bv62 6) ?x63)) (stack_t x_0 x_1 x_2 x_MLOAD_0 0 (bvadd (_ bv62 6) ?x63)))))
 (let ((?x9044 (bvadd (_ bv61 6) ?x63)))
 (let ((?x8419 (stack_t x_0 x_1 x_2 x_MLOAD_0 0 ?x9044)))
 (let (($x9234 (= $x9175 (or (exc_halt_s 3) (not (bvsle (_ bv0 6) (bvadd (_ bv62 6) (sc_s 3))))))))
 (let (($x8483 (forall ((w (_ BitVec 256)) )(let ((?x5158 (storage_s x_0 x_1 x_2 x_MLOAD_0 3 w)))
 (let ((?x6033 (storage_s x_0 x_1 x_2 x_MLOAD_0 4 w)))
 (= ?x6033 ?x5158))))
 ))
 (let (($x3601 (forall ((n (_ BitVec 6)) )(let ((?x8660 (stack_s x_0 x_1 x_2 x_MLOAD_0 3 n)))
 (let ((?x70 (stack_s x_0 x_1 x_2 x_MLOAD_0 4 n)))
 (let ((?x3851 (sc_s 3)))
 (let ((?x1010 (bvadd (_ bv62 6) ?x3851)))
 (let (($x11341 (bvsle ?x1010 n)))
 (or $x11341 (= ?x70 ?x8660))))))))
 ))
 (let ((?x3851 (sc_s 3)))
 (let (($x1323 (= ?x9433 ?x3851)))
 (let (($x11989 (= (used_gas_s x_0 x_1 x_2 x_MLOAD_0 4) (+ 3 (used_gas_s x_0 x_1 x_2 x_MLOAD_0 3)))))
 (let ((?x2271 (bvadd (_ bv63 6) ?x3851)))
 (let ((?x7653 (stack_s x_0 x_1 x_2 x_MLOAD_0 3 ?x2271)))
 (let (($x9400 (= (stack_s x_0 x_1 x_2 x_MLOAD_0 4 (bvadd (_ bv63 6) ?x9433)) (stack_s x_0 x_1 x_2 x_MLOAD_0 3 (bvadd (_ bv62 6) ?x3851)))))
 (let (($x8103 (exc_halt_s 3)))
 (let (($x6697 (= $x8103 (or (exc_halt_s 2) (not (bvsle (_ bv0 6) (bvadd (_ bv63 6) (sc_s 2))))))))
 (let (($x6132 (forall ((w (_ BitVec 256)) )(let ((?x6691 (storage_s x_0 x_1 x_2 x_MLOAD_0 2 w)))
 (let ((?x5158 (storage_s x_0 x_1 x_2 x_MLOAD_0 3 w)))
 (= ?x5158 ?x6691))))
 ))
 (let (($x8235 (forall ((n (_ BitVec 6)) )(let ((?x2272 (sc_s 2)))
 (let ((?x8323 (bvadd (_ bv63 6) ?x2272)))
 (let (($x10791 (bvsle ?x8323 n)))
 (let ((?x8344 (stack_s x_0 x_1 x_2 x_MLOAD_0 2 n)))
 (let ((?x8660 (stack_s x_0 x_1 x_2 x_MLOAD_0 3 n)))
 (or (= ?x8660 ?x8344) $x10791)))))))
 ))
 (let ((?x2272 (sc_s 2)))
 (let (($x3613 (= ?x3851 ?x2272)))
 (let ((?x5219 (used_gas_s x_0 x_1 x_2 x_MLOAD_0 3)))
 (let ((?x8323 (bvadd (_ bv63 6) ?x2272)))
 (let ((?x4612 (stack_s x_0 x_1 x_2 x_MLOAD_0 2 ?x8323)))
 (let (($x8831 (not (= ((_ extract 6 6) (bvadd (_ bv1 7) (concat (_ bv0 1) (sc_s 1)))) (_ bv0 1)))))
 (let (($x8780 (exc_halt_s 1)))
 (let (($x8324 (not (bvsle (_ bv0 6) (bvadd (_ bv63 6) (sc_s 1))))))
 (let (($x10052 (exc_halt_s 2)))
 (let (($x11236 (forall ((w (_ BitVec 256)) )(let ((?x4873 (storage_s x_0 x_1 x_2 x_MLOAD_0 1 w)))
 (let ((?x6691 (storage_s x_0 x_1 x_2 x_MLOAD_0 2 w)))
 (= ?x6691 ?x4873))))
 ))
 (let (($x11921 (forall ((n (_ BitVec 6)) )(let ((?x1929 (stack_s x_0 x_1 x_2 x_MLOAD_0 1 n)))
 (let ((?x8344 (stack_s x_0 x_1 x_2 x_MLOAD_0 2 n)))
 (let ((?x154 (sc_s 1)))
 (let ((?x3331 (bvadd (_ bv63 6) ?x154)))
 (let (($x1854 (bvsle ?x3331 n)))
 (or $x1854 (= ?x8344 ?x1929))))))))
 ))
 (let (($x8006 (= ?x2272 (bvadd (_ bv1 6) (sc_s 1)))))
 (let ((?x6035 (used_gas_s x_0 x_1 x_2 x_MLOAD_0 2)))
 (let ((?x154 (sc_s 1)))
 (let ((?x3331 (bvadd (_ bv63 6) ?x154)))
 (let ((?x10866 (stack_s x_0 x_1 x_2 x_MLOAD_0 1 ?x3331)))
 (let (($x3968 (not (= ((_ extract 6 6) (bvadd (_ bv1 7) (concat (_ bv0 1) ?x72))) (_ bv0 1)))))
 (let (($x2357 (forall ((w (_ BitVec 256)) )(let ((?x2417 (storage_s x_0 x_1 x_2 x_MLOAD_0 0 w)))
 (let ((?x4873 (storage_s x_0 x_1 x_2 x_MLOAD_0 1 w)))
 (= ?x4873 ?x2417))))
 ))
 (let (($x1301 (forall ((n (_ BitVec 6)) )(let ((?x9466 (stack_s x_0 x_1 x_2 x_MLOAD_0 0 n)))
 (let ((?x1929 (stack_s x_0 x_1 x_2 x_MLOAD_0 1 n)))
 (or (bvsle (bvadd (_ bv61 6) (sc_s 0)) n) (= ?x1929 ?x9466)))))
 ))
 (let (($x11039 (= ?x154 (bvadd (_ bv1 6) ?x72))))
 (let (($x3378 (= (stack_s x_0 x_1 x_2 x_MLOAD_0 1 (bvadd (_ bv63 6) ?x72)) (stack_s x_0 x_1 x_2 x_MLOAD_0 0 (bvadd (_ bv63 6) ?x72)))))
 (let (($x9442 (= (stack_s x_0 x_1 x_2 x_MLOAD_0 1 (bvadd (_ bv62 6) ?x72)) (stack_s x_0 x_1 x_2 x_MLOAD_0 0 (bvadd (_ bv62 6) ?x72)))))
 (let ((?x1906 (bvadd (_ bv61 6) ?x72)))
 (let ((?x5231 (stack_s x_0 x_1 x_2 x_MLOAD_0 0 ?x1906)))
 (let (($x2163 (forall ((w0 (_ BitVec 256)) )(let (($x4516 (= (stack_s x_0 x_1 x_2 x_MLOAD_0 2 (bvadd (_ bv63 6) (sc_s 2))) w0)))
 (let ((?x7074 (f_MLOAD x_0 x_1 x_2 x_MLOAD_0 w0)))
 (= ?x7074 (ite $x4516 x_MLOAD_0 (_ bv0 256))))))
 ))
 (let (($x7779 (forall ((w (_ BitVec 256)) )(let ((?x2417 (storage_s x_0 x_1 x_2 x_MLOAD_0 0 w)))
 (= ?x2417 (_ bv0 256))))
 ))
 (let (($x5661 (= ?x8318 0)))
 (let (($x8061 (not $x57)))
 (let (($x841 (= (stack_s x_0 x_1 x_2 x_MLOAD_0 0 (_ bv2 6)) x_2)))
 (let (($x4858 (= (stack_s x_0 x_1 x_2 x_MLOAD_0 0 (_ bv1 6)) x_1)))
 (let (($x4928 (= (stack_s x_0 x_1 x_2 x_MLOAD_0 0 (_ bv0 6)) x_0)))
 (let (($x9108 (= ?x72 (_ bv3 6))))
 (and $x9108 $x4928 $x4858 $x841 $x8061 $x5661 $x7779 $x2163 (= ?x10866 ?x5231) (= (stack_s x_0 x_1 x_2 x_MLOAD_0 1 ?x1906) ?x5231) $x9442 $x3378 (= (used_gas_s x_0 x_1 x_2 x_MLOAD_0 1) (+ 3 ?x8318)) $x11039 $x1301 $x2357 (= $x8780 (or $x57 $x3968 (not (bvsle (_ bv0 6) ?x1906)))) (= ?x4612 ?x10866) (= (stack_s x_0 x_1 x_2 x_MLOAD_0 2 ?x3331) ?x10866) (= ?x6035 (+ 3 (used_gas_s x_0 x_1 x_2 x_MLOAD_0 1))) $x8006 $x11921 $x11236 (= $x10052 (or $x8324 $x8780 $x8831)) (= ?x7653 (f_MLOAD x_0 x_1 x_2 x_MLOAD_0 ?x4612)) (= ?x5219 (+ 3 ?x6035)) $x3613 $x8235 $x6132 $x6697 $x9400 (= (stack_s x_0 x_1 x_2 x_MLOAD_0 4 (bvadd (_ bv62 6) ?x9433)) ?x7653) $x11989 $x1323 $x3601 $x8483 $x9234 (= ?x2999 ?x8419) (= (stack_t x_0 x_1 x_2 x_MLOAD_0 1 ?x9044) ?x8419) $x2449 $x8561 (= (used_gas_t x_0 x_1 x_2 x_MLOAD_0 1) (+ 3 ?x10043)) $x3412 $x7103 $x9037 (= $x3751 (or $x56 (not (bvsle (_ bv0 6) ?x9044)) $x5956)) (= ?x5261 (f_MLOAD x_0 x_1 x_2 x_MLOAD_0 ?x2999)) (= ?x4677 (+ 3 (used_gas_t x_0 x_1 x_2 x_MLOAD_0 1))) $x2053 $x1361 $x728 $x1152 (= (stack_t x_0 x_1 x_2 x_MLOAD_0 3 (bvadd (_ bv63 6) ?x10013)) ?x4870) (= (stack_t x_0 x_1 x_2 x_MLOAD_0 3 ?x9174) ?x4870) $x5928 $x8120 (= (stack_t x_0 x_1 x_2 x_MLOAD_0 3 ?x3979) ?x5261) $x4497 (= ?x10013 (bvadd (_ bv1 6) ?x8438)) $x9126 $x4208 (= $x9131 $x366) $x73 $x6066 $x58 $x10348 $x2663 (not (and $x4140 $x8327 $x5676 $x6776))))))))))))))))))))))))))))))))))))))))))))))))))))))))))))))))))))))))))))))))))))))))))))))))))
 )
(check-sat)
(get-proof)
